25° run output:
{
    "Function": "kroB1000.tsp",
    "Problem dimension": [
        240,
        716,
        644,
        948,
        513,
        12,
        836,
        327,
        892,
        206,
        391,
        90,
        81,
        139,
        558,
        417,
        571,
        982,
        131,
        641,
        585,
        155,
        782,
        289,
        192,
        295,
        394,
        177,
        582,
        447,
        800,
        844,
        765,
        88,
        121,
        838,
        557,
        730,
        231,
        215,
        584,
        567,
        656,
        821,
        916,
        794,
        57,
        265,
        276,
        400,
        777,
        965,
        653,
        185,
        286,
        868,
        679,
        752,
        825,
        66,
        160,
        13,
        134,
        311,
        492,
        448,
        386,
        188,
        906,
        245,
        640,
        797,
        487,
        747,
        278,
        894,
        524,
        124,
        249,
        277,
        84,
        11,
        963,
        696,
        112,
        35,
        345,
        463,
        833,
        871,
        823,
        755,
        877,
        241,
        798,
        898,
        474,
        530,
        839,
        4,
        562,
        152,
        87,
        230,
        967,
        198,
        212,
        40,
        987,
        753,
        983,
        994,
        486,
        942,
        8,
        588,
        504,
        303,
        141,
        699,
        34,
        194,
        404,
        219,
        802,
        282,
        646,
        33,
        97,
        523,
        390,
        59,
        779,
        431,
        734,
        968,
        43,
        423,
        324,
        901,
        773,
        956,
        425,
        897,
        970,
        116,
        543,
        19,
        529,
        411,
        266,
        698,
        143,
        738,
        71,
        373,
        233,
        847,
        107,
        187,
        577,
        363,
        818,
        476,
        399,
        272,
        236,
        234,
        364,
        581,
        156,
        566,
        458,
        434,
        796,
        771,
        41,
        972,
        686,
        560,
        637,
        377,
        840,
        946,
        99,
        396,
        96,
        985,
        424,
        321,
        346,
        939,
        412,
        3,
        468,
        208,
        879,
        924,
        803,
        843,
        149,
        723,
        627,
        347,
        919,
        760,
        108,
        292,
        478,
        579,
        592,
        893,
        886,
        675,
        551,
        883,
        103,
        862,
        372,
        314,
        72,
        393,
        470,
        882,
        565,
        296,
        22,
        264,
        338,
        257,
        533,
        246,
        38,
        183,
        603,
        453,
        320,
        259,
        498,
        248,
        52,
        334,
        178,
        903,
        355,
        945,
        406,
        168,
        556,
        329,
        514,
        902,
        117,
        120,
        235,
        336,
        715,
        56,
        648,
        961,
        770,
        969,
        413,
        595,
        433,
        819,
        304,
        110,
        952,
        28,
        574,
        604,
        337,
        741,
        437,
        20,
        701,
        157,
        342,
        171,
        746,
        922,
        602,
        465,
        914,
        814,
        502,
        242,
        482,
        801,
        960,
        832,
        26,
        973,
        925,
        488,
        46,
        445,
        367,
        368,
        380,
        609,
        388,
        460,
        408,
        167,
        934,
        430,
        625,
        820,
        635,
        36,
        954,
        359,
        683,
        534,
        626,
        927,
        75,
        191,
        32,
        612,
        792,
        159,
        700,
        440,
        613,
        238,
        169,
        451,
        317,
        227,
        258,
        950,
        834,
        237,
        865,
        179,
        548,
        452,
        830,
        332,
        163,
        518,
        988,
        849,
        907,
        506,
        199,
        14,
        119,
        223,
        606,
        333,
        744,
        164,
        940,
        720,
        353,
        539,
        308,
        343,
        718,
        563,
        209,
        870,
        904,
        217,
        905,
        300,
        50,
        67,
        693,
        299,
        624,
        620,
        888,
        928,
        269,
        376,
        145,
        449,
        305,
        776,
        666,
        95,
        594,
        527,
        702,
        827,
        806,
        540,
        450,
        352,
        454,
        559,
        851,
        461,
        101,
        499,
        525,
        360,
        290,
        228,
        697,
        438,
        867,
        931,
        589,
        873,
        370,
        729,
        721,
        510,
        617,
        860,
        387,
        435,
        279,
        475,
        962,
        824,
        98,
        596,
        837,
        92,
        608,
        668,
        64,
        82,
        129,
        122,
        519,
        30,
        976,
        419,
        538,
        655,
        831,
        680,
        15,
        742,
        861,
        484,
        918,
        555,
        74,
        933,
        415,
        708,
        630,
        703,
        786,
        226,
        60,
        365,
        402,
        354,
        495,
        750,
        358,
        91,
        203,
        439,
        932,
        307,
        910,
        975,
        63,
        83,
        772,
        521,
        5,
        111,
        520,
        379,
        600,
        382,
        275,
        174,
        301,
        313,
        739,
        735,
        125,
        53,
        986,
        189,
        397,
        790,
        810,
        900,
        936,
        678,
        781,
        94,
        291,
        665,
        464,
        733,
        544,
        713,
        383,
        618,
        570,
        410,
        645,
        673,
        172,
        55,
        996,
        631,
        756,
        480,
        841,
        287,
        795,
        938,
        616,
        280,
        494,
        989,
        229,
        639,
        85,
        785,
        196,
        993,
        583,
        854,
        362,
        911,
        255,
        325,
        597,
        587,
        805,
        667,
        49,
        997,
        959,
        878,
        361,
        535,
        740,
        601,
        664,
        564,
        561,
        243,
        909,
        405,
        685,
        684,
        462,
        378,
        568,
        225,
        285,
        477,
        7,
        401,
        709,
        889,
        489,
        340,
        173,
        446,
        328,
        469,
        633,
        978,
        473,
        158,
        767,
        762,
        775,
        681,
        947,
        442,
        137,
        105,
        687,
        869,
        76,
        18,
        706,
        619,
        175,
        385,
        628,
        51,
        142,
        123,
        966,
        113,
        62,
        16,
        864,
        432,
        822,
        298,
        466,
        999,
        509,
        491,
        127,
        102,
        260,
        335,
        190,
        268,
        428,
        197,
        31,
        573,
        811,
        37,
        180,
        436,
        876,
        728,
        848,
        846,
        170,
        441,
        714,
        763,
        389,
        218,
        490,
        971,
        481,
        671,
        6,
        896,
        657,
        151,
        632,
        2,
        887,
        853,
        899,
        549,
        732,
        147,
        828,
        944,
        788,
        100,
        517,
        418,
        935,
        1,
        809,
        140,
        135,
        835,
        817,
        210,
        964,
        672,
        711,
        654,
        761,
        791,
        267,
        692,
        68,
        115,
        407,
        422,
        957,
        599,
        780,
        214,
        133,
        719,
        426,
        251,
        221,
        737,
        48,
        748,
        943,
        42,
        427,
        541,
        456,
        181,
        545,
        553,
        247,
        607,
        414,
        89,
        250,
        93,
        614,
        636,
        784,
        416,
        859,
        649,
        661,
        875,
        866,
        572,
        211,
        503,
        444,
        881,
        270,
        710,
        650,
        381,
        550,
        202,
        917,
        659,
        677,
        253,
        717,
        890,
        707,
        505,
        670,
        207,
        374,
        913,
        804,
        182,
        908,
        132,
        915,
        323,
        638,
        621,
        778,
        165,
        224,
        929,
        472,
        45,
        184,
        420,
        526,
        471,
        23,
        339,
        951,
        815,
        578,
        54,
        669,
        409,
        429,
        457,
        21,
        162,
        330,
        496,
        61,
        759,
        392,
        990,
        611,
        829,
        262,
        576,
        598,
        501,
        39,
        70,
        213,
        69,
        722,
        769,
        736,
        17,
        531,
        27,
        586,
        984,
        319,
        663,
        930,
        981,
        516,
        789,
        745,
        542,
        176,
        799,
        622,
        768,
        244,
        885,
        926,
        651,
        128,
        459,
        826,
        647,
        483,
        880,
        863,
        974,
        421,
        161,
        895,
        485,
        283,
        348,
        204,
        232,
        855,
        845,
        515,
        384,
        293,
        331,
        953,
        256,
        78,
        949,
        220,
        991,
        793,
        552,
        634,
        580,
        154,
        921,
        341,
        371,
        263,
        281,
        751,
        712,
        691,
        126,
        351,
        658,
        288,
        398,
        395,
        852,
        757,
        998,
        850,
        284,
        754,
        590,
        356,
        813,
        254,
        511,
        674,
        326,
        366,
        787,
        294,
        642,
        443,
        662,
        816,
        29,
        690,
        992,
        858,
        166,
        138,
        239,
        136,
        467,
        508,
        306,
        694,
        783,
        652,
        193,
        872,
        980,
        80,
        205,
        507,
        201,
        731,
        10,
        274,
        766,
        749,
        86,
        73,
        315,
        109,
        104,
        316,
        923,
        807,
        144,
        302,
        764,
        118,
        200,
        537,
        688,
        743,
        536,
        148,
        554,
        493,
        891,
        726,
        310,
        725,
        528,
        25,
        455,
        546,
        522,
        479,
        309,
        195,
        884,
        216,
        774,
        344,
        724,
        312,
        500,
        995,
        44,
        874,
        297,
        615,
        532,
        912,
        271,
        318,
        369,
        605,
        375,
        65,
        322,
        357,
        106,
        130,
        955,
        593,
        842,
        273,
        146,
        591,
        660,
        497,
        79,
        186,
        114,
        958,
        575,
        705,
        856,
        643,
        979,
        920,
        758,
        58,
        77,
        153,
        261,
        569,
        349,
        937,
        977,
        0,
        150,
        547,
        695,
        222,
        9,
        941,
        808,
        512,
        689,
        24,
        252,
        403,
        812,
        629,
        704,
        857,
        610,
        682,
        727,
        350,
        623,
        47,
        676
    ],
    "Global Optimum": 0,
    "Algorithm": "Genetic algorithm",
    "Parameters": {
        "population": 30,
        "offspring": 30,
        "mutation probability": 0.001,
        "crossover probability": 0.9
    },
    "Fitness": 1387492,
    "Solution": [
        240,
        716,
        644,
        948,
        513,
        12,
        836,
        327,
        892,
        206,
        391,
        90,
        81,
        139,
        558,
        417,
        571,
        982,
        131,
        641,
        585,
        155,
        782,
        289,
        192,
        295,
        394,
        177,
        582,
        447,
        800,
        844,
        765,
        88,
        121,
        838,
        557,
        730,
        231,
        215,
        584,
        567,
        656,
        821,
        916,
        794,
        57,
        265,
        276,
        400,
        777,
        965,
        653,
        185,
        286,
        868,
        679,
        752,
        825,
        66,
        160,
        13,
        134,
        311,
        492,
        448,
        386,
        188,
        906,
        245,
        640,
        797,
        487,
        747,
        278,
        894,
        524,
        124,
        249,
        277,
        84,
        11,
        963,
        696,
        112,
        35,
        345,
        463,
        833,
        871,
        823,
        755,
        877,
        241,
        798,
        898,
        474,
        530,
        839,
        4,
        562,
        152,
        87,
        230,
        967,
        198,
        212,
        40,
        987,
        753,
        983,
        994,
        486,
        942,
        8,
        588,
        504,
        303,
        141,
        699,
        34,
        194,
        404,
        219,
        802,
        282,
        646,
        33,
        97,
        523,
        390,
        59,
        779,
        431,
        734,
        968,
        43,
        423,
        324,
        901,
        773,
        956,
        425,
        897,
        970,
        116,
        543,
        19,
        529,
        411,
        266,
        698,
        143,
        738,
        71,
        373,
        233,
        847,
        107,
        187,
        577,
        363,
        818,
        476,
        399,
        272,
        236,
        234,
        364,
        581,
        156,
        566,
        458,
        434,
        796,
        771,
        41,
        972,
        686,
        560,
        637,
        377,
        840,
        946,
        99,
        396,
        96,
        985,
        424,
        321,
        346,
        939,
        412,
        3,
        468,
        208,
        879,
        924,
        803,
        843,
        149,
        723,
        627,
        347,
        919,
        760,
        108,
        292,
        478,
        579,
        592,
        893,
        886,
        675,
        551,
        883,
        103,
        862,
        372,
        314,
        72,
        393,
        470,
        882,
        565,
        296,
        22,
        264,
        338,
        257,
        533,
        246,
        38,
        183,
        603,
        453,
        320,
        259,
        498,
        248,
        52,
        334,
        178,
        903,
        355,
        945,
        406,
        168,
        556,
        329,
        514,
        902,
        117,
        120,
        235,
        336,
        715,
        56,
        648,
        961,
        770,
        969,
        413,
        595,
        433,
        819,
        304,
        110,
        952,
        28,
        574,
        604,
        337,
        741,
        437,
        20,
        701,
        157,
        342,
        171,
        746,
        922,
        602,
        465,
        914,
        814,
        502,
        242,
        482,
        801,
        960,
        832,
        26,
        973,
        925,
        488,
        46,
        445,
        367,
        368,
        380,
        609,
        388,
        460,
        408,
        167,
        934,
        430,
        625,
        820,
        635,
        36,
        954,
        359,
        683,
        534,
        626,
        927,
        75,
        191,
        32,
        612,
        792,
        159,
        700,
        440,
        613,
        238,
        169,
        451,
        317,
        227,
        258,
        950,
        834,
        237,
        865,
        179,
        548,
        452,
        830,
        332,
        163,
        518,
        988,
        849,
        907,
        506,
        199,
        14,
        119,
        223,
        606,
        333,
        744,
        164,
        940,
        720,
        353,
        539,
        308,
        343,
        718,
        563,
        209,
        870,
        904,
        217,
        905,
        300,
        50,
        67,
        693,
        299,
        624,
        620,
        888,
        928,
        269,
        376,
        145,
        449,
        305,
        776,
        666,
        95,
        594,
        527,
        702,
        827,
        806,
        540,
        450,
        352,
        454,
        559,
        851,
        461,
        101,
        499,
        525,
        360,
        290,
        228,
        697,
        438,
        867,
        931,
        589,
        873,
        370,
        729,
        721,
        510,
        617,
        860,
        387,
        435,
        279,
        475,
        962,
        824,
        98,
        596,
        837,
        92,
        608,
        668,
        64,
        82,
        129,
        122,
        519,
        30,
        976,
        419,
        538,
        655,
        831,
        680,
        15,
        742,
        861,
        484,
        918,
        555,
        74,
        933,
        415,
        708,
        630,
        703,
        786,
        226,
        60,
        365,
        402,
        354,
        495,
        750,
        358,
        91,
        203,
        439,
        932,
        307,
        910,
        975,
        63,
        83,
        772,
        521,
        5,
        111,
        520,
        379,
        600,
        382,
        275,
        174,
        301,
        313,
        739,
        735,
        125,
        53,
        986,
        189,
        397,
        790,
        810,
        900,
        936,
        678,
        781,
        94,
        291,
        665,
        464,
        733,
        544,
        713,
        383,
        618,
        570,
        410,
        645,
        673,
        172,
        55,
        996,
        631,
        756,
        480,
        841,
        287,
        795,
        938,
        616,
        280,
        494,
        989,
        229,
        639,
        85,
        785,
        196,
        993,
        583,
        854,
        362,
        911,
        255,
        325,
        597,
        587,
        805,
        667,
        49,
        997,
        959,
        878,
        361,
        535,
        740,
        601,
        664,
        564,
        561,
        243,
        909,
        405,
        685,
        684,
        462,
        378,
        568,
        225,
        285,
        477,
        7,
        401,
        709,
        889,
        489,
        340,
        173,
        446,
        328,
        469,
        633,
        978,
        473,
        158,
        767,
        762,
        775,
        681,
        947,
        442,
        137,
        105,
        687,
        869,
        76,
        18,
        706,
        619,
        175,
        385,
        628,
        51,
        142,
        123,
        966,
        113,
        62,
        16,
        864,
        432,
        822,
        298,
        466,
        999,
        509,
        491,
        127,
        102,
        260,
        335,
        190,
        268,
        428,
        197,
        31,
        573,
        811,
        37,
        180,
        436,
        876,
        728,
        848,
        846,
        170,
        441,
        714,
        763,
        389,
        218,
        490,
        971,
        481,
        671,
        6,
        896,
        657,
        151,
        632,
        2,
        887,
        853,
        899,
        549,
        732,
        147,
        828,
        944,
        788,
        100,
        517,
        418,
        935,
        1,
        809,
        140,
        135,
        835,
        817,
        210,
        964,
        672,
        711,
        654,
        761,
        791,
        267,
        692,
        68,
        115,
        407,
        422,
        957,
        599,
        780,
        214,
        133,
        719,
        426,
        251,
        221,
        737,
        48,
        748,
        943,
        42,
        427,
        541,
        456,
        181,
        545,
        553,
        247,
        607,
        414,
        89,
        250,
        93,
        614,
        636,
        784,
        416,
        859,
        649,
        661,
        875,
        866,
        572,
        211,
        503,
        444,
        881,
        270,
        710,
        650,
        381,
        550,
        202,
        917,
        659,
        677,
        253,
        717,
        890,
        707,
        505,
        670,
        207,
        374,
        913,
        804,
        182,
        908,
        132,
        915,
        323,
        638,
        621,
        778,
        165,
        224,
        929,
        472,
        45,
        184,
        420,
        526,
        471,
        23,
        339,
        951,
        815,
        578,
        54,
        669,
        409,
        429,
        457,
        21,
        162,
        330,
        496,
        61,
        759,
        392,
        990,
        611,
        829,
        262,
        576,
        598,
        501,
        39,
        70,
        213,
        69,
        722,
        769,
        736,
        17,
        531,
        27,
        586,
        984,
        319,
        663,
        930,
        981,
        516,
        789,
        745,
        542,
        176,
        799,
        622,
        768,
        244,
        885,
        926,
        651,
        128,
        459,
        826,
        647,
        483,
        880,
        863,
        974,
        421,
        161,
        895,
        485,
        283,
        348,
        204,
        232,
        855,
        845,
        515,
        384,
        293,
        331,
        953,
        256,
        78,
        949,
        220,
        991,
        793,
        552,
        634,
        580,
        154,
        921,
        341,
        371,
        263,
        281,
        751,
        712,
        691,
        126,
        351,
        658,
        288,
        398,
        395,
        852,
        757,
        998,
        850,
        284,
        754,
        590,
        356,
        813,
        254,
        511,
        674,
        326,
        366,
        787,
        294,
        642,
        443,
        662,
        816,
        29,
        690,
        992,
        858,
        166,
        138,
        239,
        136,
        467,
        508,
        306,
        694,
        783,
        652,
        193,
        872,
        980,
        80,
        205,
        507,
        201,
        731,
        10,
        274,
        766,
        749,
        86,
        73,
        315,
        109,
        104,
        316,
        923,
        807,
        144,
        302,
        764,
        118,
        200,
        537,
        688,
        743,
        536,
        148,
        554,
        493,
        891,
        726,
        310,
        725,
        528,
        25,
        455,
        546,
        522,
        479,
        309,
        195,
        884,
        216,
        774,
        344,
        724,
        312,
        500,
        995,
        44,
        874,
        297,
        615,
        532,
        912,
        271,
        318,
        369,
        605,
        375,
        65,
        322,
        357,
        106,
        130,
        955,
        593,
        842,
        273,
        146,
        591,
        660,
        497,
        79,
        186,
        114,
        958,
        575,
        705,
        856,
        643,
        979,
        920,
        758,
        58,
        77,
        153,
        261,
        569,
        349,
        937,
        977,
        0,
        150,
        547,
        695,
        222,
        9,
        941,
        808,
        512,
        689,
        24,
        252,
        403,
        812,
        629,
        704,
        857,
        610,
        682,
        727,
        350,
        623,
        47,
        676
    ],
    "Nb of functions evaluations": 50010,
    "Computational time in seconds": 1487.5425443649292,
    "Stopping criterion in evaluations": 50000
}